c defined variables: 
p cnf 85 57
a 1 2 3 4 5 6 7 8 9 10 11 12 13 0
d 14 5 9 10 0
d 15 2 3 6 13 0
d 16 3 5 10 11 0
d 17 0
d 18 2 6 8 12 13 0
d 19 13 0
d 20 1 3 8 12 0
d 21 2 3 4 8 10 0
d 22 11 0
d 23 12 0
d 24 2 3 7 10 13 0
d 25 1 0
d 26 7 11 12 13 0
d 27 1 5 10 13 0
-2 12 -15 17 -18 0
-6 -8 14 -17 18 0
5 -9 14 15 -19 0
11 -12 14 16 -20 0
3 -6 -15 17 20 0
-5 13 16 -19 20 0
5 -10 -16 20 -21 0
-2 10 -19 -20 21 0
-6 -10 -15 20 21 0
2 -12 -18 -20 -22 0
8 -10 17 -21 -22 0
3 -11 14 15 22 0
3 -11 -15 -16 22 0
-11 -12 -16 -19 23 0
-4 -10 17 -21 23 0
11 13 19 22 23 0
10 12 -17 18 -24 0
-12 -13 -18 21 -24 0
3 13 15 23 -24 0
10 11 15 16 24 0
-2 7 -16 -20 24 0
-3 11 -16 20 24 0
8 12 -17 -18 -25 0
1 -12 20 -21 -25 0
-1 -10 14 21 -25 0
1 12 -15 -23 -25 0
3 -12 -20 24 -25 0
6 13 -14 -15 25 0
-11 -12 -15 19 -26 0
-1 6 -15 20 -26 0
7 10 17 -21 -26 0
11 12 -18 -22 -26 0
-2 -12 18 -23 -26 0
2 6 -15 -24 -26 0
7 -13 -16 18 26 0
3 13 -15 23 26 0
-3 7 14 -24 26 0
3 13 -15 -24 26 0
5 -10 -14 24 26 0
2 12 20 24 26 0
11 12 -18 -25 26 0
1 -11 18 -25 26 0
-1 -3 20 25 26 0
-10 -11 15 -22 -27 0
-10 12 -21 -23 -27 0
-5 -8 -21 23 -27 0
-7 -10 21 -24 -27 0
5 13 -19 -25 -27 0
3 11 16 25 -27 0
1 -12 -15 26 -27 0
-7 8 21 26 -27 0
1 -12 -24 26 -27 0
3 6 -15 -16 27 0
-5 12 18 19 27 0
-1 5 -14 23 27 0
-5 -7 -24 25 27 0
-5 13 -15 -26 27 0
